Problem:    4_Localizzazione
Rows:       26
Columns:    55 (5 integer, 5 binary)
Non-zeros:  210
Status:     INTEGER OPTIMAL
Objective:  z = 7157 (MINimum)

   No.   Row name        Activity     Lower bound   Upper bound
------ ------------    ------------- ------------- -------------
     1 def_y[1]                   35            35             = 
     2 def_y[2]                   28            28             = 
     3 def_y[3]                   49            49             = 
     4 def_y[4]                   37            37             = 
     5 def_y[5]                   40            40             = 
     6 def_y[6]                   26            26             = 
     7 def_y[7]                   31            31             = 
     8 def_y[8]                   48            48             = 
     9 def_y[9]                   28            28             = 
    10 def_y[10]                  36            36             = 
    11 CapacitaMax[1]
                                 -99                          -0 
    12 CapacitaMax[2]
                                -100                          -0 
    13 CapacitaMax[3]
                                 -45                          -0 
    14 CapacitaMax[4]
                                 -56                          -0 
    15 CapacitaMax[5]
                                   0                          -0 
    16 cliente[1]                 35             1               
    17 cliente[2]                 28             1               
    18 cliente[3]                 49             1               
    19 cliente[4]                 37             1               
    20 cliente[5]                 40             1               
    21 cliente[6]                 26             1               
    22 cliente[7]                 31             1               
    23 cliente[8]                 48             1               
    24 cliente[9]                 28             1               
    25 cliente[10]                36             1               
    26 z                        7157                             

   No. Column name       Activity     Lower bound   Upper bound
------ ------------    ------------- ------------- -------------
     1 x[1]         *              1             0             1 
     2 x[2]         *              1             0             1 
     3 x[3]         *              1             0             1 
     4 x[4]         *              1             0             1 
     5 x[5]         *              1             0             1 
     6 y[1,1]                      0             0               
     7 y[2,1]                      0             0               
     8 y[3,1]                      0             0               
     9 y[4,1]                     35             0               
    10 y[5,1]                      0             0               
    11 y[1,2]                     28             0               
    12 y[2,2]                      0             0               
    13 y[3,2]                      0             0               
    14 y[4,2]                      0             0               
    15 y[5,2]                      0             0               
    16 y[1,3]                      0             0               
    17 y[2,3]                      0             0               
    18 y[3,3]                      0             0               
    19 y[4,3]                      0             0               
    20 y[5,3]                     49             0               
    21 y[1,4]                      0             0               
    22 y[2,4]                      0             0               
    23 y[3,4]                     37             0               
    24 y[4,4]                      0             0               
    25 y[5,4]                      0             0               
    26 y[1,5]                      0             0               
    27 y[2,5]                      0             0               
    28 y[3,5]                      0             0               
    29 y[4,5]                      1             0               
    30 y[5,5]                     39             0               
    31 y[1,6]                      0             0               
    32 y[2,6]                     26             0               
    33 y[3,6]                      0             0               
    34 y[4,6]                      0             0               
    35 y[5,6]                      0             0               
    36 y[1,7]                      0             0               
    37 y[2,7]                      0             0               
    38 y[3,7]                      0             0               
    39 y[4,7]                      0             0               
    40 y[5,7]                     31             0               
    41 y[1,8]                     48             0               
    42 y[2,8]                      0             0               
    43 y[3,8]                      0             0               
    44 y[4,8]                      0             0               
    45 y[5,8]                      0             0               
    46 y[1,9]                      0             0               
    47 y[2,9]                      0             0               
    48 y[3,9]                     28             0               
    49 y[4,9]                      0             0               
    50 y[5,9]                      0             0               
    51 y[1,10]                     0             0               
    52 y[2,10]                     0             0               
    53 y[3,10]                     0             0               
    54 y[4,10]                     0             0               
    55 y[5,10]                    36             0               

Integer feasibility conditions:

KKT.PE: max.abs.err = 0.00e+000 on row 0
        max.rel.err = 0.00e+000 on row 0
        High quality

KKT.PB: max.abs.err = 7.11e-015 on row 5
        max.rel.err = 1.73e-016 on row 5
        High quality

End of output
